100
150
120
117
117
116
115
114
111
109
108
107
106
105
105
103
103
103
103
102
102
101
98
98
97
95
94
94
93
92
92
88
87
85
85
85
84
83
82
80
79
75
75
74
73
73
71
67
66
66
66
65
64
64
62
61
60
60
57
56
54
54
54
53
52
51
51
50
49
49
47
44
43
42
41
41
40
38
37
37
36
36
34
33
32
31
30
28
28
27
25
24
23
22
21
20
18
17
16
16
15
15
